NAME : P = NP
TYPE : TSP
DIMENSION : 41
EDGE_WEIGHT_TYPE : EUC_2D
NODE_COORD_SECTION
0 252 300
1 96 10
2 723 186
3 211 543
4 137 708
5 784 161
6 13 746
7 257 177
8 28 349
9 566 344
10 133 318
11 613 37
12 501 0
13 209 88
14 249 97
15 316 77
16 398 540
17 46 213
18 752 605
19 44 124
20 25 138
21 18 114
22 169 379
23 703 365
24 381 351
25 312 6
26 346 39
27 405 151
28 44 276
29 683 848
30 120 336
31 259 250
32 477 311
33 528 15
34 29 798
35 193 95
36 494 48
37 214 717
38 251 131
39 127 474
40 257 587